letting n be 12
letting exclusions be [
]
letting assignments be [
[5, 2, 2, 8]
,
[10, 5, 2, 11]
,
[7, 6, 1, 7]
,
[5, 1, 2, 7]
,
[9, 5, 1, 3]
,
[8, 2, 1, 9]
,
[11, 5, 1, 11]
,
[5, 5, 1, 3]
,
[9, 6, 2, 10]
,
[10, 1, 1, 6]
]
